c generated by sgen1
c Command: ./sgen1 -unsat -n 127 -s 100 
p cnf 129 268
-2 -3 -4 0
-1 -3 -4 0
-1 -2 -4 0
-1 -2 -3 0
-6 -7 -8 0
-5 -7 -8 0
-5 -6 -8 0
-5 -6 -7 0
-10 -11 -12 0
-9 -11 -12 0
-9 -10 -12 0
-9 -10 -11 0
-14 -15 -16 0
-13 -15 -16 0
-13 -14 -16 0
-13 -14 -15 0
-18 -19 -20 0
-17 -19 -20 0
-17 -18 -20 0
-17 -18 -19 0
-22 -23 -24 0
-21 -23 -24 0
-21 -22 -24 0
-21 -22 -23 0
-26 -27 -28 0
-25 -27 -28 0
-25 -26 -28 0
-25 -26 -27 0
-30 -31 -32 0
-29 -31 -32 0
-29 -30 -32 0
-29 -30 -31 0
-34 -35 -36 0
-33 -35 -36 0
-33 -34 -36 0
-33 -34 -35 0
-38 -39 -40 0
-37 -39 -40 0
-37 -38 -40 0
-37 -38 -39 0
-42 -43 -44 0
-41 -43 -44 0
-41 -42 -44 0
-41 -42 -43 0
-46 -47 -48 0
-45 -47 -48 0
-45 -46 -48 0
-45 -46 -47 0
-50 -51 -52 0
-49 -51 -52 0
-49 -50 -52 0
-49 -50 -51 0
-54 -55 -56 0
-53 -55 -56 0
-53 -54 -56 0
-53 -54 -55 0
-58 -59 -60 0
-57 -59 -60 0
-57 -58 -60 0
-57 -58 -59 0
-62 -63 -64 0
-61 -63 -64 0
-61 -62 -64 0
-61 -62 -63 0
-66 -67 -68 0
-65 -67 -68 0
-65 -66 -68 0
-65 -66 -67 0
-70 -71 -72 0
-69 -71 -72 0
-69 -70 -72 0
-69 -70 -71 0
-74 -75 -76 0
-73 -75 -76 0
-73 -74 -76 0
-73 -74 -75 0
-78 -79 -80 0
-77 -79 -80 0
-77 -78 -80 0
-77 -78 -79 0
-82 -83 -84 0
-81 -83 -84 0
-81 -82 -84 0
-81 -82 -83 0
-86 -87 -88 0
-85 -87 -88 0
-85 -86 -88 0
-85 -86 -87 0
-90 -91 -92 0
-89 -91 -92 0
-89 -90 -92 0
-89 -90 -91 0
-94 -95 -96 0
-93 -95 -96 0
-93 -94 -96 0
-93 -94 -95 0
-98 -99 -100 0
-97 -99 -100 0
-97 -98 -100 0
-97 -98 -99 0
-102 -103 -104 0
-101 -103 -104 0
-101 -102 -104 0
-101 -102 -103 0
-106 -107 -108 0
-105 -107 -108 0
-105 -106 -108 0
-105 -106 -107 0
-110 -111 -112 0
-109 -111 -112 0
-109 -110 -112 0
-109 -110 -111 0
-114 -115 -116 0
-113 -115 -116 0
-113 -114 -116 0
-113 -114 -115 0
-118 -119 -120 0
-117 -119 -120 0
-117 -118 -120 0
-117 -118 -119 0
-122 -123 -124 0
-121 -123 -124 0
-121 -122 -124 0
-121 -122 -123 0
-125 -126 -127  0
-125 -126 -128  0
-125 -126 -129  0
-125 -127 -128  0
-125 -127 -129  0
-125 -128 -129  0
-126 -127 -128  0
-126 -127 -129  0
-126 -128 -129  0
-127 -128 -129  0
10 115 13 0
32 115 13 0
32 10 13 0
32 10 115 0
98 26 129 0
23 26 129 0
23 98 129 0
23 98 26 0
122 101 81 0
17 101 81 0
17 122 81 0
17 122 101 0
40 47 19 0
4 47 19 0
4 40 19 0
4 40 47 0
50 46 94 0
120 46 94 0
120 50 94 0
120 50 46 0
127 41 91 0
30 41 91 0
30 127 91 0
30 127 41 0
88 21 110 0
103 21 110 0
103 88 110 0
103 88 21 0
34 20 7 0
125 20 7 0
125 34 7 0
125 34 20 0
25 49 3 0
8 49 3 0
8 25 3 0
8 25 49 0
121 80 12 0
74 80 12 0
74 121 12 0
74 121 80 0
53 51 83 0
73 51 83 0
73 53 83 0
73 53 51 0
14 43 124 0
39 43 124 0
39 14 124 0
39 14 43 0
56 112 48 0
35 112 48 0
35 56 48 0
35 56 112 0
57 33 106 0
118 33 106 0
118 57 106 0
118 57 33 0
70 75 31 0
18 75 31 0
18 70 31 0
18 70 75 0
79 102 42 0
36 102 42 0
36 79 42 0
36 79 102 0
44 97 11 0
85 97 11 0
85 44 11 0
85 44 97 0
6 116 104 0
108 116 104 0
108 6 104 0
108 6 116 0
65 96 64 0
29 96 64 0
29 65 64 0
29 65 96 0
9 54 27 0
67 54 27 0
67 9 27 0
67 9 54 0
55 90 5 0
58 90 5 0
58 55 5 0
58 55 90 0
16 109 89 0
66 109 89 0
66 16 89 0
66 16 109 0
93 78 92 0
71 78 92 0
71 93 92 0
71 93 78 0
37 72 63 0
28 72 63 0
28 37 63 0
28 37 72 0
111 77 2 0
113 77 2 0
113 111 2 0
113 111 77 0
45 62 100 0
15 62 100 0
15 45 100 0
15 45 62 0
38 86 126 0
59 86 126 0
59 38 126 0
59 38 86 0
84 69 24 0
1 69 24 0
1 84 24 0
1 84 69 0
95 107 123 0
128 107 123 0
128 95 123 0
128 95 107 0
87 114 119 0
61 114 119 0
61 87 119 0
61 87 114 0
117 99 82 0
68 99 82 0
68 117 82 0
68 117 99 0
105 52 60  0
105 52 22  0
105 52 76  0
105 60 22  0
105 60 76  0
105 22 76  0
52 60 22  0
52 60 76  0
52 22 76  0
60 22 76  0
